
  12   12
  10   10   10   10   10   10   10   10   10   10   10   10

   0   0   0   0   0   0   0   0   0   0   0   0   0   4 2 5 6 11 
   5   0   0   1   0   0   1   0   0   0   1   0   0   3 10 4 3 
   1   0   1   0   0   0   0   0   1   1   0   0   1   2 9 8 
   8   0   9   0   0   0   0   0   6   0   8   0   0   2 8 7 
   9   0   4   5   1   0   0   1   0   0   0   0   8   2 8 7 
   5   0   7   0   0   5   0   0   8   0   0   0   0   1 7 
   1   0   5   0   9   0   0   4   5   8   0   0   0   1 12
   9   1   0   0   0   0   9   0   0   0   0   0   0   1 12
   4   0   0   0   0   0   0   0   0   6   6   0   0   1 12
   7   0   0   9   0   0   5   0   0   0   0   0   6   1 12
   1   9   4   0   5   0   0  10   0   0   0   5   0   1 12
   0   0   0   0   0   0   0   0   0   0   0   0   0   0 
